24
2 54 14 
2 38 45 
3 17 22 30 
3 48 47 35 
3 16 57 52 
3 24 41 23 
2 36 29 
2 4 26 
2 31 37 
3 44 43 42 
2 19 21 
2 34 46 
3 11 20 40 
3 55 58 60 
3 28 6 27 
2 8 56 
2 12 33 
3 49 5 18 
3 32 59 39 
2 13 53 
2 3 9 
3 1 7 2 
3 50 10 25 
2 15 51 
